(set-info :source  loris-7.ddns.comp.nus.edu.sg/~project/hip/) 
;Variables declarations
(declare-fun bhr_7312 () Int)
(declare-fun nr_7311 () Int)
(declare-fun nd () Int)
(declare-fun bhl_7309 () Int)
(declare-fun nl_7308 () Int)
(declare-fun nc () Int)
(declare-fun r_7310 () Int)
(declare-fun l_7307 () Int)
(declare-fun v_7306 () Int)
(declare-fun v_int_161_7299 () Int)
(declare-fun v_int_161_7298 () Int)
(declare-fun flted_153_7294 () Int)
(declare-fun flted_153_7295 () Int)
(declare-fun flted_153_7297 () Int)
(declare-fun color_primed () Int)
(declare-fun color () Int)
(declare-fun d_primed () Int)
(declare-fun d () Int)
(declare-fun c_primed () Int)
(declare-fun c () Int)
(declare-fun b_primed () Int)
(declare-fun b () Int)
(declare-fun a_primed () Int)
(declare-fun a () Int)
(declare-fun na_7282 () Int)
(declare-fun na () Int)
(declare-fun h_7285 () Int)
(declare-fun h () Int)
(declare-fun nb_7283 () Int)
(declare-fun nb () Int)
(declare-fun Anon_17 () Int)
(declare-fun flted_153_7296 () Int)
;Relations declarations
;Axioms assertions
;Antecedent
(assert (= bhr_7312 h))
(assert (= nr_7311 nd))
(assert (= bhl_7309 h))
(assert (= nl_7308 nc))
(assert (= r_7310 d_primed))
(assert (= l_7307 c_primed))
(assert (= v_7306 v_int_161_7298))
(assert (= v_int_161_7299 1))
(assert (= v_int_161_7298 0))
(assert (= color 0))
(assert (= flted_153_7294 0))
(assert (= flted_153_7295 0))
(assert (= flted_153_7296 0))
(assert (= flted_153_7297 0))
(assert (= color_primed color))
(assert (= d_primed d))
(assert (= c_primed c))
(assert (= b_primed b))
(assert (= a_primed a))
(assert (= na_7282 na))
(assert (= h_7285 h))
(assert (= nb_7283 nb))
(assert (= Anon_17 flted_153_7296))
;Negation of Consequence
(assert (not false))
(check-sat)